
  12    4
  10   10   10   10

   0   0   0   0   0   4 2 9 10 11 
   3  10  10  10  10   3 8 7 3 
   7  10  10  10  10   3 6 5 4 
   2  10  10  10  10   1 12
   1  10  10  10  10   1 12
   8  10  10  10  10   1 12
   3  10  10  10  10   1 12
   4  10  10  10  10   1 12
   6  10  10  10  10   1 12
   3  10  10  10  10   1 12
   2  10  10  10  10   1 12
   0   0   0   0   0   0 
